(set-info :smt-lib-version 2.6)
(set-info :category "crafted")
(set-logic QF_FF)
(define-sort FF0 () (_ FiniteField 52435875175126190479447740508185965837690552500527637822603658699938581184513))
(declare-fun f () Bool)
(declare-fun c () Bool)
(declare-fun e () Bool)
(declare-fun a () Bool)
(declare-fun b () Bool)
(declare-fun d () Bool)
(declare-fun out () FF0)
(declare-fun _12 () FF0)
(declare-fun _6 () FF0)
(declare-fun _11 () FF0)
(declare-fun _4 () FF0)
(declare-fun _10 () FF0)
(declare-fun _9 () FF0)
(declare-fun _1 () FF0)
(declare-fun _0 () FF0)
(declare-fun _5 () FF0)
(declare-fun _2 () FF0)
(declare-fun _3 () FF0)
(assert 
  (let ((let0 f))
  (let ((let1 c))
  (let ((let2 (= let1 let0)))
  (let ((let3 e))
  (let ((let4 (not let3)))
  (let ((let5 a))
  (let ((let6 b))
  (let ((let7 (=> let6 let5)))
  (let ((let8 d))
  (let ((let9 (and let8 let7 let4 let2)))
  (let ((let10 out))
  (let ((let11 (as ff1 FF0)))
  (let ((let12 (= let11 let10)))
  (let ((let13 (= let12 let9)))
  (let ((let14 (as ff0 FF0)))
  (let ((let15 (= let14 let10)))
  (let ((let16 (or let12 let15)))
  (let ((let17 (and let16 let13)))
  (let ((let18 _12))
  (let ((let19 (= let18 let10)))
  (let ((let20 (as ff52435875175126190479447740508185965837690552500527637822603658699938581184512 FF0)))
  (let ((let21 _6))
  (let ((let22 (ff.mul let21 let20)))
  (let ((let23 (ff.add let22 let11)))
  (let ((let24 _11))
  (let ((let25 (ff.mul let24 let23)))
  (let ((let26 (= let25 let18)))
  (let ((let27 _4))
  (let ((let28 (ff.mul let27 let20)))
  (let ((let29 (ff.add let28 let11)))
  (let ((let30 _10))
  (let ((let31 (ff.mul let30 let29)))
  (let ((let32 (= let31 let24)))
  (let ((let33 _9))
  (let ((let34 (ff.mul let33 let20)))
  (let ((let35 _1))
  (let ((let36 (ff.mul let35 let20)))
  (let ((let37 _0))
  (let ((let38 (ff.add let37 let36 let34 let11)))
  (let ((let39 (ff.add let36 let11)))
  (let ((let40 (ff.mul let39 let37)))
  (let ((let41 (= let40 let38)))
  (let ((let42 _5))
  (let ((let43 (ff.mul let42 let20)))
  (let ((let44 _2))
  (let ((let45 (ff.add let44 let43)))
  (let ((let46 (ff.mul let45 let45)))
  (let ((let47 (= let46 let21)))
  (let ((let48 (ff.mul let42 let42)))
  (let ((let49 (= let48 let42)))
  (let ((let50 (ff.mul let27 let27)))
  (let ((let51 (= let50 let27)))
  (let ((let52 _3))
  (let ((let53 (ff.mul let52 let52)))
  (let ((let54 (= let53 let52)))
  (let ((let55 (ff.mul let44 let44)))
  (let ((let56 (= let55 let44)))
  (let ((let57 (ff.mul let35 let35)))
  (let ((let58 (= let57 let35)))
  (let ((let59 (ff.mul let37 let37)))
  (let ((let60 (= let59 let37)))
  (let ((let61 (and let60 let58 let56 let54 let51 let49 let47 let41 let32 let26 let19)))
  (let ((let62 (ite let0 let11 let14)))
  (let ((let63 (= let42 let62)))
  (let ((let64 (ite let5 let11 let14)))
  (let ((let65 (= let37 let64)))
  (let ((let66 (ite let8 let11 let14)))
  (let ((let67 (= let52 let66)))
  (let ((let68 (ite let3 let11 let14)))
  (let ((let69 (= let27 let68)))
  (let ((let70 (ite let1 let11 let14)))
  (let ((let71 (= let44 let70)))
  (let ((let72 (ite let6 let11 let14)))
  (let ((let73 (= let35 let72)))
  (let ((let74 (and let73 let71 let69 let67 let65 let63)))
  (let ((let75 (and let74 let61)))
  (let ((let76 (=> let75 let17)))
  (let ((let77 (not let76)))
  let77
))))))))))))))))))))))))))))))))))))))))))))))))))))))))))))))))))))))))))))))
)
(check-sat)
